50
6713

889 766
385 500
382 523
297 77
255 571
510 378
732 698
908 524
55 664
453 803
732 628
892 952
944 692
992 421
155 128
592 841
188 234
554 515
110 968
421 12
57 172
865 837
190 481
390 299
113 944
584 702
967 302
49 578
152 947
867 413
329 657
244 650
454 206
868 861
719 43
666 365
340 859
148 927
925 650
896 114
841 475
289 716
263 185
945 585
100 309
243 107
703 969
692 833
6 689
264 556
